NAME: tsp25_25
COMMENT: 25-tsp problem (Padberg/Rinaldi)
TYPE: TSP
DIMENSION: 25
EDGE_WEIGHT_TYPE : EUC_2D
NODE_COORD_SECTION
1 9 5
2 27 19
3 26 35
4 10 34
5 27 6
6 39 29
7 22 30
8 19 35
9 20 5
10 32 25
11 38 11
12 28 1
13 27 3
14 28 40
15 17 24
16 3 17
17 25 31
18 37 12
19 32 17
20 32 30
21 36 13
22 6 24
23 38 28
24 31 22
25 28 6
